../spot5/8.spot 8 4 15 13
4 4 4 4 2 2 2 2
2 1 0 0 3
2 2 13
1 1 13
0 0 13
2 2 0 0 3
2 2 13
1 1 13
0 0 13
2 3 0 0 3
2 2 13
1 1 13
0 0 13
2 5 4 0 1
0 0 13
2 5 6 0 1
0 0 13
2 2 1 0 3
2 2 13
1 1 13
0 0 13
2 3 1 0 3
2 2 13
1 1 13
0 0 13
1 0 0 1
3 1
1 1 0 1
3 1
1 2 0 1
3 1
1 3 0 1
3 1
1 4 0 1
1 2
1 5 0 1
1 2
1 6 0 1
1 2
1 7 0 1
1 2
